NAME           caca-example
ROWS
 N  obj     
 L  c1  
COLUMNS
    x1        obj                             -1
    x2        obj                             -2
    x1        c1                              1
    x2        c1                              2
RHS
    rhs       c1                              3
BOUNDS
 UP bnd       x1                              5
 UP bnd       x2                              5
ENDATA
